50, 672
41, 36
29, 24
24, 19
18, 13
27, 22
48, 43
11, 6
18, 13
23, 18
38, 33
31, 26
52, 47
40, 35
17, 12
25, 20
26, 21
26, 21
48, 43
32, 27
50, 45
21, 16
18, 13
27, 22
40, 35
54, 49
43, 38
46, 41
45, 40
20, 15
51, 46
51, 46
24, 19
47, 42
31, 26
22, 17
35, 30
29, 24
17, 12
42, 37
10, 5
7, 2
42, 37
20, 15
48, 43
26, 21
26, 21
53, 48
17, 12
46, 41
13, 8
